1 -1 2 0
1 -3 4 0
1 3 1 0
1 5 -6 0
1 7 -8 0
1 9 10 0
1 9 11 0
1 -9 12 0
1 9 -5 0
1 13 11 0
1 13 7 0
1 13 -9 0
1 13 14 0
1 -4 15 0
1 -4 -6 0
1 -6 10 0
1 6 16 0
1 -6 17 0
1 12 -9 0
1 12 18 0
1 11 18 0
1 -11 12 0
1 -19 -20 0
1 19 21 0
1 19 -22 0
1 -23 -20 0
1 23 24 0
1 23 9 0
1 -23 -18 0
1 -18 25 0
1 25 5 0
1 21 -23 0
1 21 12 0
1 20 7 0
1 -20 21 0
1 20 12 0
1 -20 -5 0
1 26 27 0
1 26 -24 0
1 -26 -18 0
1 -28 25 0
1 28 -18 0
1 -29 30 0
1 29 -22 0
1 -31 -22 0
1 22 -26 0
1 22 -19 0
1 -24 32 0
1 33 -28 0
1 -33 -34 0
1 -33 -35 0
1 -27 23 0
1 -27 -36 0
1 -27 29 0
1 27 19 0
1 -2 -37 0
1 38 -39 0
1 37 -40 0
1 41 -40 0
1 -39 42 0
1 -39 -38 0
1 -43 44 0
1 43 45 0
1 46 -37 0
1 -46 -47 0
1 46 -41 0
1 -46 48 0
1 -15 47 0
1 -15 -46 0
1 17 -37 0
1 -17 -47 0
1 -17 -49 0
1 -17 -50 0
1 -16 -23 0
1 16 47 0
1 16 49 0
1 -47 -15 0
1 48 8 0
1 48 51 0
1 52 -40 0
1 52 -16 0
1 -52 8 0
1 52 -46 0
1 -53 40 0
1 -53 16 0
1 -53 54 0
1 -53 17 0
1 53 -55 0
1 14 -10 0
1 -14 26 0
1 -10 -14 0
1 10 -13 0
1 -30 -56 0
1 -30 -20 0
1 -30 -57 0
1 -30 -48 0
1 30 -50 0
1 -58 57 0
1 -58 -59 0
1 60 -61 0
1 -50 10 0
1 -50 -14 0
1 -50 -62 0
1 -63 -64 0
1 63 58 0
1 63 -14 0
1 -63 -49 0
1 -49 -62 0
1 36 -65 0
1 -61 -21 0
1 61 33 0
1 66 -67 0
1 66 -27 0
1 -66 33 0
1 -66 59 0
1 35 67 0
1 -35 57 0
1 -35 -50 0
1 -65 -68 0
1 -65 -69 0
1 -65 -66 0
1 -65 61 0
1 56 -70 0
1 56 -58 0
1 -56 -36 0
1 57 -66 0
1 59 71 0
1 -59 66 0
1 -59 6 0
1 34 72 0
1 32 -67 0
1 32 -34 0
1 -69 -73 0
1 69 65 0
1 -69 72 0
1 -69 74 0
1 -69 -75 0
1 -76 67 0
1 -74 66 0
1 -74 -77 0
1 74 78 0
1 -79 80 0
1 79 -81 0
1 72 82 0
1 72 32 0
1 -67 -83 0
1 67 -69 0
1 -67 66 0
1 67 -84 0
1 -67 -72 0
1 -85 -73 0
1 85 -68 0
1 77 -80 0
1 -77 86 0
1 77 74 0
1 73 85 0
1 -73 -87 0
1 75 -69 0
1 75 84 0
1 75 -77 0
1 -75 76 0
1 -86 27 0
1 -86 -88 0
1 -86 -75 0
1 89 90 0
1 89 -91 0
1 89 92 0
1 -93 94 0
1 95 96 0
1 -97 90 0
1 97 96 0
1 91 44 0
1 -91 98 0
1 98 99 0
1 -98 -93 0
1 -98 95 0
1 -100 -90 0
1 100 -99 0
1 -100 101 0
1 100 -102 0
1 90 103 0
1 -90 -89 0
1 -104 -45 0
1 -104 -43 0
1 104 -96 0
1 45 -105 0
1 45 91 0
1 -106 107 0
1 106 -108 0
1 106 -109 0
1 -44 91 0
1 44 -101 0
1 44 -110 0
1 -96 -111 0
1 -96 104 0
1 112 44 0
1 112 111 0
1 112 -96 0
1 108 -99 0
1 -108 -97 0
1 -108 -106 0
1 105 -108 0
1 -105 103 0
1 -105 -106 0
1 -105 104 0
1 113 -114 0
1 113 37 0
1 -113 -110 0
1 -113 96 0
1 113 -109 0
1 40 10 0
1 -40 -99 0
1 -40 112 0
1 40 43 0
1 -111 115 0
1 -115 -58 0
1 114 115 0
1 114 116 0
1 114 106 0
1 114 117 0
1 107 64 0
1 107 -114 0
1 107 40 0
1 -107 54 0
1 107 111 0
1 109 118 0
1 109 111 0
1 -109 -113 0
1 -109 -106 0
1 109 -119 0
1 -110 -106 0
1 -110 119 0
1 54 -64 0
1 -54 120 0
1 54 -53 0
1 64 47 0
1 64 54 0
1 121 122 0
1 -121 -66 0
1 -121 123 0
1 -117 124 0
1 -117 119 0
1 122 62 0
1 -122 117 0
1 -125 126 0
1 125 -121 0
1 -125 111 0
1 -125 127 0
1 -125 62 0
1 42 115 0
1 -42 128 0
1 -42 121 0
1 -42 129 0
1 -123 -64 0
1 -123 130 0
1 123 -131 0
1 -126 -60 0
1 -126 49 0
1 62 -122 0
1 -62 63 0
1 -62 -126 0
1 -62 57 0
1 62 -125 0
1 62 49 0
1 62 32 0
1 -62 -59 0
1 71 132 0
1 71 57 0
1 133 71 0
1 -133 -134 0
1 133 -125 0
1 -124 121 0
1 -124 135 0
1 -124 -62 0
1 124 -117 0
1 51 136 0
1 51 68 0
1 51 124 0
1 51 -135 0
1 -51 -48 0
1 51 -62 0
1 -137 138 0
1 137 -139 0
1 138 140 0
1 138 128 0
1 138 126 0
1 138 139 0
1 68 -67 0
1 68 57 0
1 82 -56 0
1 -82 124 0
1 82 132 0
1 141 -124 0
1 -141 142 0
1 -135 -143 0
1 -132 -144 0
1 -132 71 0
1 -132 145 0
1 132 -133 0
1 -142 141 0
1 142 -68 0
1 -142 -88 0
1 134 -136 0
1 134 -146 0
1 146 71 0
1 146 145 0
1 -146 135 0
1 -146 -82 0
1 -147 -70 0
1 147 -132 0
1 147 -143 0
1 -147 -75 0
1 84 -67 0
1 84 148 0
1 84 -149 0
1 -84 75 0
1 -144 -70 0
1 144 150 0
1 -144 148 0
1 -88 132 0
1 -148 147 0
1 -148 151 0
1 -70 -56 0
1 -70 147 0
1 -70 141 0
1 70 -152 0
1 143 -141 0
1 143 -153 0
1 143 88 0
1 -143 -154 0
1 -143 -155 0
1 156 -157 0
1 -156 -158 0
1 -156 -152 0
1 -156 -145 0
1 -156 -155 0
1 159 160 0
1 -161 145 0
1 161 -78 0
1 162 163 0
1 162 -164 0
1 165 70 0
1 -165 -83 0
1 -165 166 0
1 165 167 0
1 -165 162 0
1 78 159 0
1 -78 -165 0
1 78 88 0
1 -78 168 0
1 -78 169 0
1 -163 -88 0
1 -163 78 0
1 -164 88 0
1 164 72 0
1 164 169 0
1 164 151 0
1 164 162 0
1 170 -163 0
1 -170 -171 0
1 -170 151 0
1 -171 -152 0
1 171 167 0
1 -172 173 0
1 172 78 0
1 -172 174 0
1 173 78 0
1 167 -171 0
1 87 171 0
1 87 -175 0
1 -174 176 0
1 -174 -166 0
1 166 -177 0
1 166 -174 0
1 92 178 0
1 -92 -179 0
1 -92 180 0
1 92 89 0
1 181 182 0
1 -181 180 0
1 -181 183 0
1 184 179 0
1 -184 185 0
1 -184 -186 0
1 -187 101 0
1 -180 -188 0
1 -180 -189 0
1 -179 -184 0
1 -179 -94 0
1 -182 -188 0
1 -182 179 0
1 182 184 0
1 102 -100 0
1 -102 -190 0
1 -191 45 0
1 -191 -186 0
1 189 101 0
1 -101 -192 0
1 101 193 0
1 -101 183 0
1 186 -194 0
1 186 -181 0
1 190 -194 0
1 -190 195 0
1 190 -99 0
1 190 184 0
1 -190 186 0
1 190 196 0
1 190 -102 0
1 197 -184 0
1 197 198 0
1 197 189 0
1 197 102 0
1 -103 199 0
1 103 98 0
1 -103 105 0
1 -103 -200 0
1 99 199 0
1 99 40 0
1 99 -98 0
1 -99 -105 0
1 99 193 0
1 196 192 0
1 -196 186 0
1 -195 201 0
1 -195 -200 0
1 -195 193 0
1 -193 -199 0
1 193 189 0
1 199 118 0
1 -200 202 0
1 -192 -99 0
1 -192 -203 0
1 -192 196 0
1 -192 189 0
1 120 199 0
1 120 -201 0
1 -120 -105 0
1 -120 -54 0
1 118 194 0
1 118 204 0
1 -118 112 0
1 -118 205 0
1 -118 109 0
1 206 201 0
1 -206 -207 0
1 -206 208 0
1 206 -119 0
1 -119 199 0
1 -119 -208 0
1 -205 206 0
1 205 -209 0
1 201 -195 0
1 -201 130 0
1 -201 120 0
1 -201 209 0
1 -210 -195 0
1 -210 -211 0
1 -210 -203 0
1 -210 212 0
1 -204 -206 0
1 -204 120 0
1 204 -210 0
1 116 -201 0
1 -129 -42 0
1 129 -205 0
1 129 208 0
1 130 -213 0
1 130 71 0
1 130 214 0
1 130 215 0
1 -131 213 0
1 -131 130 0
1 208 216 0
1 -208 130 0
1 -208 214 0
1 208 217 0
1 -208 139 0
1 208 218 0
1 -208 -131 0
1 208 219 0
1 214 216 0
1 -214 112 0
1 -214 220 0
1 -214 -129 0
1 -214 119 0
1 -221 -216 0
1 -221 -222 0
1 221 -223 0
1 -221 130 0
1 -221 -206 0
1 -221 -217 0
1 -207 216 0
1 207 -116 0
1 207 129 0
1 128 42 0
1 128 224 0
1 128 -125 0
1 -218 225 0
1 218 123 0
1 -218 209 0
1 140 -213 0
1 140 226 0
1 140 -224 0
1 -140 -127 0
1 139 -138 0
1 213 -150 0
1 213 227 0
1 -225 136 0
1 -225 -228 0
1 -225 -149 0
1 225 -139 0
1 215 229 0
1 215 -131 0
1 -224 -216 0
1 -224 -130 0
1 -224 -218 0
1 -136 -134 0
1 136 138 0
1 149 -230 0
1 149 84 0
1 -149 -217 0
1 -150 213 0
1 -150 -144 0
1 -150 -231 0
1 -150 -232 0
1 150 134 0
1 150 233 0
1 228 150 0
1 228 -230 0
1 -228 234 0
1 228 233 0
1 -230 -235 0
1 230 -140 0
1 127 -158 0
1 -127 125 0
1 127 236 0
1 -226 150 0
1 -226 237 0
1 -226 -238 0
1 226 233 0
1 -226 -149 0
1 -233 -239 0
1 233 -229 0
1 233 -136 0
1 -233 -140 0
1 -233 237 0
1 233 240 0
1 -233 123 0
1 -233 139 0
1 158 -159 0
1 -158 -127 0
1 -158 -241 0
1 -145 161 0
1 -155 -242 0
1 155 153 0
1 155 -143 0
1 153 127 0
1 -153 -241 0
1 153 -156 0
1 -234 -124 0
1 234 -153 0
1 234 228 0
1 -241 -243 0
1 232 -158 0
1 232 150 0
1 -232 228 0
1 -244 150 0
1 -244 -153 0
1 244 138 0
1 -151 -83 0
1 -151 245 0
1 -151 156 0
1 246 157 0
1 246 247 0
1 -246 -234 0
1 246 242 0
1 -246 164 0
1 246 -241 0
1 -246 -248 0
1 246 249 0
1 247 -245 0
1 -245 -250 0
1 -245 132 0
1 -249 247 0
1 -249 152 0
1 -249 153 0
1 249 246 0
1 -249 142 0
1 242 -251 0
1 -242 243 0
1 242 252 0
1 -242 -253 0
1 -242 -151 0
1 254 247 0
1 -254 153 0
1 -169 255 0
1 -169 166 0
1 169 250 0
1 -169 -154 0
1 -250 -255 0
1 250 78 0
1 250 249 0
1 177 -245 0
1 176 -251 0
1 176 -154 0
1 176 -174 0
1 256 148 0
1 -256 -175 0
1 -255 -257 0
1 -255 -70 0
1 154 258 0
1 -154 -177 0
1 -154 -169 0
1 154 246 0
1 -157 -176 0
1 -157 259 0
1 -157 156 0
1 -175 -260 0
1 175 252 0
1 -260 256 0
1 261 262 0
1 261 256 0
1 262 255 0
1 -262 -168 0
1 -168 -263 0
1 -168 -78 0
1 168 264 0
1 -168 265 0
1 263 -177 0
1 -266 267 0
1 266 176 0
1 266 268 0
1 266 175 0
1 267 262 0
1 -267 269 0
1 -267 -175 0
1 270 271 0
1 -270 -272 0
1 270 -273 0
1 274 -273 0
1 -275 -263 0
1 275 271 0
1 275 273 0
1 -265 275 0
1 265 -276 0
1 -273 -262 0
1 273 -270 0
1 -277 -278 0
1 -277 270 0
1 277 -261 0
1 -277 273 0
1 279 261 0
1 279 280 0
1 271 -262 0
1 -271 281 0
1 -271 264 0
1 -271 279 0
1 -178 282 0
1 -178 -283 0
1 185 284 0
1 282 -285 0
1 282 -286 0
1 -282 287 0
1 -286 288 0
1 286 -185 0
1 -286 287 0
1 289 -290 0
1 287 291 0
1 287 182 0
1 287 -102 0
1 285 282 0
1 -285 -292 0
1 -293 294 0
1 293 288 0
1 293 295 0
1 -293 -292 0
1 293 189 0
1 -288 -284 0
1 -288 294 0
1 -288 -295 0
1 -288 -292 0
1 291 296 0
1 291 185 0
1 291 198 0
1 291 297 0
1 291 -287 0
1 292 298 0
1 292 -297 0
1 292 293 0
1 -284 285 0
1 -284 298 0
1 295 -284 0
1 295 -285 0
1 -295 185 0
1 -295 -298 0
1 -295 293 0
1 -297 179 0
1 -297 197 0
1 297 -182 0
1 -297 -292 0
1 -188 179 0
1 -188 -299 0
1 -198 300 0
1 -198 197 0
1 -198 301 0
1 -300 195 0
1 -300 302 0
1 303 -194 0
1 303 288 0
1 -302 194 0
1 -302 -188 0
1 -302 198 0
1 -302 293 0
1 294 -304 0
1 -294 -298 0
1 -294 299 0
1 294 198 0
1 -299 188 0
1 -299 293 0
1 305 306 0
1 305 -307 0
1 -194 296 0
1 194 -303 0
1 -194 -197 0
1 -194 -186 0
1 194 -200 0
1 -194 -307 0
1 -308 192 0
1 -308 -309 0
1 308 306 0
1 308 -310 0
1 308 302 0
1 308 311 0
1 312 309 0
1 -312 -306 0
1 -306 -312 0
1 306 300 0
1 313 314 0
1 -313 -305 0
1 313 -315 0
1 307 316 0
1 -307 198 0
1 -203 -192 0
1 -203 -199 0
1 -203 116 0
1 -203 200 0
1 -203 210 0
1 202 -200 0
1 202 -301 0
1 -202 129 0
1 -211 309 0
1 -211 -317 0
1 211 -204 0
1 -211 210 0
1 -211 -318 0
1 318 317 0
1 -318 211 0
1 -318 -311 0
1 310 308 0
1 -310 202 0
1 -309 318 0
1 309 190 0
1 319 320 0
1 319 321 0
1 311 -183 0
1 -311 202 0
1 -223 -309 0
1 223 -201 0
1 223 -207 0
1 223 -320 0
1 223 221 0
1 -209 204 0
1 -209 223 0
1 209 310 0
1 209 -221 0
1 -209 322 0
1 -222 -323 0
1 222 324 0
1 -324 317 0
1 -324 -325 0
1 -324 326 0
1 322 216 0
1 -322 -193 0
1 322 -327 0
1 -322 324 0
1 -317 217 0
1 -326 -328 0
1 326 -200 0
1 -326 318 0
1 -329 211 0
1 329 324 0
1 216 -330 0
1 216 -214 0
1 216 -224 0
1 -216 -217 0
1 -216 -322 0
1 -217 317 0
1 217 323 0
1 -217 325 0
1 231 220 0
1 -231 224 0
1 -231 331 0
1 -231 -219 0
1 332 228 0
1 332 322 0
1 -332 -219 0
1 332 215 0
1 -331 239 0
1 331 -222 0
1 331 238 0
1 331 -240 0
1 331 332 0
1 331 -333 0
1 -325 231 0
1 325 222 0
1 -325 -238 0
1 212 -334 0
1 212 217 0
1 -323 -204 0
1 -323 -334 0
1 229 -213 0
1 -229 226 0
1 229 224 0
1 229 215 0
1 240 325 0
1 240 -220 0
1 -240 -145 0
1 -240 -225 0
1 -240 -335 0
1 -240 219 0
1 240 215 0
1 238 -336 0
1 -238 153 0
1 -238 334 0
1 219 -229 0
1 219 332 0
1 220 238 0
1 337 338 0
1 337 -339 0
1 -337 221 0
1 337 -340 0
1 -337 -333 0
1 -336 -338 0
1 336 337 0
1 336 340 0
1 -237 227 0
1 237 -341 0
1 -248 342 0
1 248 -232 0
1 -248 -343 0
1 248 -344 0
1 -248 341 0
1 343 -345 0
1 -343 -344 0
1 -343 -248 0
1 -227 -239 0
1 227 346 0
1 -227 -251 0
1 -227 -341 0
1 -227 -347 0
1 348 349 0
1 348 -248 0
1 344 -350 0
1 344 -347 0
1 -344 349 0
1 344 248 0
1 351 -235 0
1 351 -232 0
1 -351 -242 0
1 -243 -232 0
1 -243 -236 0
1 253 -352 0
1 -253 -236 0
1 -251 353 0
1 -251 -354 0
1 235 355 0
1 235 -236 0
1 -235 248 0
1 236 127 0
1 -236 -356 0
1 342 -357 0
1 342 350 0
1 342 253 0
1 -353 358 0
1 353 251 0
1 353 -342 0
1 -353 -243 0
1 353 -248 0
1 252 -235 0
1 252 -347 0
1 359 157 0
1 359 249 0
1 -259 360 0
1 -259 261 0
1 355 -157 0
1 355 -235 0
1 -355 361 0
1 -355 -360 0
1 -355 -362 0
1 361 -257 0
1 -361 251 0
1 361 363 0
1 -361 272 0
1 361 -259 0
1 354 363 0
1 -354 -253 0
1 -354 364 0
1 352 365 0
1 352 366 0
1 -362 -355 0
1 362 -253 0
1 272 267 0
1 272 361 0
1 -272 360 0
1 -272 -367 0
1 -272 -368 0
1 268 -369 0
1 -268 267 0
1 268 -370 0
1 -268 -266 0
1 268 276 0
1 276 -267 0
1 276 361 0
1 -276 -360 0
1 276 -370 0
1 -276 -258 0
1 370 -257 0
1 370 371 0
1 -370 -372 0
1 368 -280 0
1 -368 -264 0
1 -360 257 0
1 360 -242 0
1 -360 -268 0
1 -360 272 0
1 372 271 0
1 372 363 0
1 264 -263 0
1 -264 -266 0
1 264 -373 0
1 -374 375 0
1 374 376 0
1 -374 377 0
1 374 280 0
1 -280 375 0
1 280 374 0
1 280 -377 0
1 -280 -378 0
1 -280 -279 0
1 -377 369 0
1 -377 -379 0
1 377 380 0
1 377 -280 0
1 377 -264 0
1 258 381 0
1 258 -382 0
1 -258 276 0
1 375 -258 0
1 375 264 0
1 281 -269 0
1 -383 -281 0
1 -384 269 0
1 -380 -369 0
1 -380 385 0
1 -376 263 0
1 -376 386 0
1 376 383 0
1 378 384 0
1 -269 267 0
1 -269 -384 0
1 -269 -387 0
1 -388 -278 0
1 -389 388 0
1 389 -390 0
1 -389 -391 0
1 -392 -393 0
1 385 -278 0
1 -385 273 0
1 278 392 0
1 -278 385 0
1 278 -386 0
1 391 -279 0
1 -394 386 0
1 298 -296 0
1 298 395 0
1 296 294 0
1 -296 396 0
1 296 295 0
1 -296 292 0
1 397 398 0
1 -399 400 0
1 399 294 0
1 -399 -397 0
1 399 -401 0
1 -400 -397 0
1 400 -298 0
1 402 316 0
1 -402 403 0
1 395 -399 0
1 395 296 0
1 395 -290 0
1 -395 397 0
1 -396 399 0
1 396 296 0
1 396 404 0
1 396 298 0
1 -314 400 0
1 314 302 0
1 -314 307 0
1 314 -403 0
1 -403 405 0
1 403 401 0
1 316 -406 0
1 -316 304 0
1 -316 -407 0
1 316 -408 0
1 316 -315 0
1 315 -406 0
1 -315 -407 0
1 315 405 0
1 -315 -307 0
1 -406 409 0
1 406 -410 0
1 -406 -411 0
1 -401 399 0
1 -401 406 0
1 401 292 0
1 -401 -411 0
1 398 399 0
1 398 409 0
1 -398 405 0
1 -398 411 0
1 -320 406 0
1 320 306 0
1 -320 -401 0
1 -320 311 0
1 321 319 0
1 321 -311 0
1 410 -311 0
1 412 -407 0
1 -407 320 0
1 -407 413 0
1 -407 -408 0
1 408 414 0
1 408 407 0
1 408 -316 0
1 408 302 0
1 -304 -415 0
1 -304 -416 0
1 -304 -417 0
1 304 -315 0
1 417 418 0
1 -417 -415 0
1 417 -419 0
1 417 -420 0
1 417 299 0
1 -417 411 0
1 -417 315 0
1 -330 -309 0
1 330 -216 0
1 -330 -409 0
1 -330 421 0
1 -330 310 0
1 422 -330 0
1 -422 -408 0
1 414 -423 0
1 -414 407 0
1 424 -423 0
1 -424 -408 0
1 -424 425 0
1 421 -330 0
1 421 334 0
1 421 -425 0
1 -425 -414 0
1 425 -330 0
1 425 410 0
1 425 421 0
1 -425 -334 0
1 425 -412 0
1 426 418 0
1 426 427 0
1 426 -428 0
1 -428 -426 0
1 -428 -424 0
1 -428 307 0
1 -328 323 0
1 -328 -322 0
1 -335 -423 0
1 335 328 0
1 335 317 0
1 -335 240 0
1 -335 -429 0
1 -335 -326 0
1 430 239 0
1 430 431 0
1 334 -430 0
1 -334 423 0
1 -334 432 0
1 -334 -421 0
1 -334 -433 0
1 -429 423 0
1 429 414 0
1 429 -339 0
1 -429 -333 0
1 -423 309 0
1 423 429 0
1 -423 434 0
1 -435 -436 0
1 -433 -328 0
1 -433 -335 0
1 339 -323 0
1 339 -237 0
1 339 212 0
1 -340 -423 0
1 -340 437 0
1 340 -438 0
1 340 -429 0
1 340 439 0
1 345 440 0
1 345 336 0
1 -345 441 0
1 345 -439 0
1 345 337 0
1 345 340 0
1 -327 -338 0
1 327 -345 0
1 -327 442 0
1 -327 340 0
1 -432 -443 0
1 432 349 0
1 -444 430 0
1 -444 -445 0
1 -444 339 0
1 -444 446 0
1 444 -434 0
1 -437 430 0
1 437 329 0
1 437 -444 0
1 437 446 0
1 -447 -336 0
1 -447 220 0
1 447 439 0
1 338 -327 0
1 -338 -439 0
1 349 -348 0
1 448 -349 0
1 448 -439 0
1 -439 448 0
1 -439 438 0
1 439 -449 0
1 -439 447 0
1 -439 450 0
1 439 -340 0
1 438 -325 0
1 438 -447 0
1 -451 452 0
1 451 442 0
1 -451 447 0
1 -440 442 0
1 347 227 0
1 -347 350 0
1 -347 -252 0
1 -350 445 0
1 -350 -344 0
1 -350 -347 0
1 449 346 0
1 357 -453 0
1 -357 -342 0
1 -454 358 0
1 454 -455 0
1 -454 366 0
1 -456 350 0
1 -456 457 0
1 -458 -459 0
1 458 460 0
1 461 -357 0
1 -461 336 0
1 461 -449 0
1 -461 347 0
1 -365 -462 0
1 -365 -463 0
1 -365 353 0
1 358 346 0
1 -358 -342 0
1 358 235 0
1 -358 353 0
1 457 464 0
1 -457 356 0
1 366 352 0
1 366 362 0
1 346 363 0
1 -346 -457 0
1 -346 449 0
1 463 346 0
1 -463 465 0
1 463 363 0
1 -463 -366 0
1 -462 466 0
1 -462 -455 0
1 462 457 0
1 -462 -365 0
1 -467 -365 0
1 467 459 0
1 363 -373 0
1 -363 372 0
1 363 455 0
1 -363 -464 0
1 -363 356 0
1 363 367 0
1 -373 -352 0
1 373 -367 0
1 -465 -346 0
1 -465 -463 0
1 -465 364 0
1 468 -469 0
1 -468 470 0
1 468 280 0
1 -470 -371 0
1 -470 363 0
1 470 -471 0
1 470 -468 0
1 -356 -472 0
1 356 371 0
1 -356 363 0
1 -356 -373 0
1 356 366 0
1 469 -342 0
1 469 -473 0
1 469 474 0
1 469 -373 0
1 -464 469 0
1 464 -475 0
1 -464 -476 0
1 -464 468 0
1 -371 -375 0
1 -371 -471 0
1 371 477 0
1 471 477 0
1 471 -371 0
1 -471 356 0
1 -471 -370 0
1 -381 -375 0
1 382 476 0
1 478 393 0
1 478 -379 0
1 478 -387 0
1 -478 471 0
1 -364 -381 0
1 -364 -465 0
1 364 478 0
1 -364 -382 0
1 -479 480 0
1 -479 -472 0
1 477 480 0
1 477 474 0
1 379 481 0
1 390 369 0
1 -390 379 0
1 -390 -377 0
1 -390 -474 0
1 -390 364 0
1 -390 -482 0
1 393 -392 0
1 -393 -480 0
1 -393 269 0
1 393 387 0
1 -393 -483 0
1 387 -393 0
1 387 -478 0
1 -387 -378 0
1 -481 -393 0
1 481 -387 0
1 -482 379 0
1 411 398 0
1 411 404 0
1 415 -484 0
1 -415 -485 0
1 -415 -417 0
1 420 486 0
1 -420 487 0
1 -420 -485 0
1 -420 -488 0
1 486 489 0
1 484 418 0
1 484 -415 0
1 484 -420 0
1 -490 -411 0
1 404 396 0
1 -418 -413 0
1 -413 -486 0
1 413 -417 0
1 413 -408 0
1 -431 -487 0
1 431 -426 0
1 -491 -487 0
1 -491 -484 0
1 -491 485 0
1 487 -491 0
1 487 413 0
1 -487 492 0
1 -488 401 0
1 -488 -492 0
1 493 431 0
1 493 415 0
1 485 -491 0
1 485 -494 0
1 485 -492 0
1 495 426 0
1 -495 -421 0
1 -495 -427 0
1 495 -488 0
1 -495 -496 0
1 -436 -497 0
1 -436 488 0
1 -436 340 0
1 -436 433 0
1 498 499 0
1 498 500 0
1 498 491 0
1 496 -495 0
1 -496 431 0
1 496 500 0
1 496 -501 0
1 -496 -498 0
1 -496 -441 0
1 -496 -491 0
1 496 502 0
1 416 499 0
1 -419 416 0
1 419 503 0
1 -434 -501 0
1 434 492 0
1 -501 -338 0
1 501 -504 0
1 -501 496 0
1 446 -500 0
1 -446 505 0
1 -446 506 0
1 -446 -507 0
1 -500 -508 0
1 -500 -498 0
1 500 506 0
1 500 -507 0
1 -504 500 0
1 -504 452 0
1 507 500 0
1 -507 501 0
1 -507 509 0
1 -507 446 0
1 507 425 0
1 -497 510 0
1 -497 501 0
1 -497 506 0
1 -506 -510 0
1 506 497 0
1 506 434 0
1 442 432 0
1 -442 -511 0
1 -442 -347 0
1 445 512 0
1 445 -444 0
1 452 443 0
1 -452 513 0
1 -453 357 0
1 453 -440 0
1 -453 -504 0
1 -453 -513 0
1 -453 514 0
1 511 515 0
1 -511 453 0
1 -508 -516 0
1 508 517 0
1 508 -452 0
1 -518 509 0
1 518 442 0
1 512 519 0
1 -512 -500 0
1 512 509 0
1 -512 -442 0
1 520 -461 0
1 521 -438 0
1 521 511 0
1 -517 515 0
1 517 457 0
1 -517 -511 0
1 517 -514 0
1 515 -522 0
1 -515 461 0
1 -515 -517 0
1 514 -515 0
1 514 -453 0
1 -514 455 0
1 -514 -520 0
1 -514 452 0
1 514 -523 0
1 -514 524 0
1 -443 521 0
1 -443 -432 0
1 -443 525 0
1 513 526 0
1 513 527 0
1 513 -520 0
1 513 444 0
1 513 452 0
1 526 -521 0
1 526 -528 0
1 526 516 0
1 -455 529 0
1 -455 -363 0
1 -455 458 0
1 -459 -462 0
1 459 530 0
1 -459 461 0
1 -459 450 0
1 459 458 0
1 -459 -454 0
1 -466 -531 0
1 -466 -460 0
1 -524 -529 0
1 -524 -460 0
1 450 473 0
1 450 -517 0
1 450 476 0
1 530 455 0
1 -530 -532 0
1 -530 -524 0
1 533 534 0
1 -529 515 0
1 529 533 0
1 -529 523 0
1 532 -473 0
1 -475 535 0
1 -475 -536 0
1 -475 -460 0
1 476 537 0
1 -476 -538 0
1 -531 -480 0
1 531 472 0
1 -531 475 0
1 -531 454 0
1 -536 -524 0
1 -460 534 0
1 460 -539 0
1 -460 -540 0
1 460 -458 0
1 -472 534 0
1 -472 470 0
1 -472 -479 0
1 474 464 0
1 -474 -540 0
1 480 -541 0
1 480 -542 0
1 -542 -543 0
1 542 537 0
1 -542 -387 0
1 -535 472 0
1 535 476 0
1 538 -535 0
1 -538 542 0
1 -543 -537 0
1 537 -475 0
1 -492 -489 0
1 -492 -544 0
1 492 -488 0
1 -505 -545 0
1 -546 -545 0
1 -544 510 0
1 544 505 0
1 -547 -490 0
1 -547 -548 0
1 545 -505 0
1 549 -489 0
1 549 550 0
1 -549 -442 0
1 499 -550 0
1 -499 416 0
1 -499 496 0
1 -551 -552 0
1 551 550 0
1 -551 553 0
1 551 -554 0
1 -551 497 0
1 -551 555 0
1 510 503 0
1 550 -510 0
1 550 -556 0
1 -550 551 0
1 -555 510 0
1 -555 -499 0
1 555 -546 0
1 -555 509 0
1 555 557 0
1 552 -549 0
1 494 -510 0
1 494 499 0
1 494 549 0
1 -494 -557 0
1 -509 504 0
1 -509 507 0
1 -519 497 0
1 519 -509 0
1 -519 -555 0
1 -519 -503 0
1 -558 550 0
1 -558 555 0
1 -558 503 0
1 558 559 0
1 558 -560 0
1 -522 512 0
1 522 -554 0
1 -522 -518 0
1 554 -519 0
1 -554 -510 0
1 -554 498 0
1 554 -561 0
1 502 -562 0
1 -553 563 0
1 -503 -556 0
1 -503 -509 0
1 -503 564 0
1 503 557 0
1 -516 554 0
1 -516 -565 0
1 516 -502 0
1 528 566 0
1 -528 -567 0
1 -528 -559 0
1 561 568 0
1 561 528 0
1 -561 569 0
1 -561 502 0
1 -569 504 0
1 569 -561 0
1 -560 -507 0
1 560 -528 0
1 -560 569 0
1 565 -522 0
1 -565 -570 0
1 -559 -522 0
1 527 -443 0
1 -527 569 0
1 -527 560 0
1 523 -568 0
1 523 569 0
1 -523 513 0
1 -523 -571 0
1 572 568 0
1 -572 -573 0
1 572 567 0
1 574 575 0
1 574 529 0
1 -574 -576 0
1 -574 577 0
1 -574 476 0
1 574 -560 0
1 576 -572 0
1 -575 578 0
1 -575 -561 0
1 567 -568 0
1 -567 527 0
1 567 579 0
1 -567 -561 0
1 568 567 0
1 568 -574 0
1 534 575 0
1 534 580 0
1 534 539 0
1 -534 -577 0
1 -534 -533 0
1 534 -450 0
1 -540 539 0
1 -540 -474 0
1 -540 533 0
1 541 573 0
1 541 576 0
1 578 539 0
1 578 -542 0
1 -578 576 0
1 -578 581 0
1 578 -582 0
1 -582 -578 0
1 525 -541 0
1 525 572 0
1 -525 -578 0
1 -577 -578 0
1 -577 513 0
1 556 516 0
1 -556 555 0
1 -557 -548 0
1 557 552 0
1 -566 583 0
1 584 -566 0
1 -584 -585 0
1 -586 -556 0
1 587 544 0
1 587 -571 0
1 -583 566 0
1 583 -556 0
1 583 -584 0
1 563 586 0
1 563 -502 0
1 -571 -586 0
1 -571 554 0
1 571 587 0
1 570 -588 0
1 589 590 0
1 -589 591 0
1 589 592 0
1 589 593 0
1 589 -574 0
1 -591 570 0
1 -585 -570 0
1 585 581 0
1 585 579 0
1 585 571 0
1 -585 584 0
1 -593 -570 0
1 -593 -563 0
1 593 -494 0
1 -593 -589 0
1 580 -559 0
1 579 -568 0
1 -579 -559 0
1 -579 560 0
1 594 -541 0
1 -594 -591 0
1 594 -592 0
1 -581 591 0
1 581 -595 0
1 581 585 0
1 -588 -570 0
1 -588 -595 0
1 -564 -594 0
1 564 581 0
1 -564 579 0
